(set-info :smt-lib-version 2.6)
(set-logic QF_SLIA)
(set-info :source |
Generated by: Georgiy Belyanin, Mikhail Starchak
Generated on: 2026-02-19
Application: Evaluate string solvers on problems featuring combinations of length constraints and string-to-integer conversions
Target solver: CVC5, Z3-Noodler
Time limit: 60.0
Generated benchmarks featuring regular constraints, linear integer constraints over
string lengths, integers converted from strings and concatenation.
Each benchmark contains from 2 to 4 string variables, which occur in the scope of
str.len and str.to_int functions. The assertions are composed of
— a regular constraint over each variable;
— 1, 2, or 3 linear constraints over string lengths and variables converted to integers;
— one word equation with constants over decimal digits (e.g. "20"++x = z++y+"26").
The benchmarks are split into three categories:
— "random", with integer coefficients ranging from -10 to 10 and constants from -100 to 100;
— "long", with at least one assertion requiring the length of a variable to be more than 1000;
— "z3-hard", which are unsolvable by Z3 in 10s (on a single Intel Core i7-6700 CPU core @ 3.40GHz with 8GB of DDR5 RAM).
|)
(set-info :license "https://creativecommons.org/licenses/by/4.0/")
(set-info :category "random")
(set-info :status unknown)

(declare-const x String)
(declare-const y String)
(declare-const z String)

(assert (>= (str.to_int x) 0))
(assert (>= (str.to_int y) 0))
(assert (>= (str.to_int z) 0))

(assert (= (str.++ x z) (str.++ y "73")))

(assert (str.in_re y (re.+ (re.union (re.++ (re.range "2" "7") (re.+ (re.range "1" "8"))) (re.range "4" "9")))))
(assert (str.in_re z (re.* (re.union (re.+ (re.range "3" "8")) (re.range "4" "6")))))
(assert (str.in_re x (re.union (re.* (re.* (re.+ (str.to_re "55")))) (str.to_re "71"))))

(assert (<= (+ (* (- 9) (str.to_int x)) (* 9 (str.to_int y)) (* (- 2) (str.to_int z))) 93))
(assert (> (+ (* (- 6) (str.len x)) (* 5 (str.len y)) (* 4 (str.len z))) 10))

(check-sat)
(exit)
